v1 = 5;
v2 = 5;
vertexWeights = [-45, -45, -45, -45, -45, -45, -90, -26.61766330841233, -90, -90, -90, -45, -90, -90, -90, -90, -90, -45, -90, -90, -59.052942348370756, -90, -90, -45, -90, -57.83165223301164, -90, -90, -90, -45, -90, -90, -29.3981291921782, -90, -90];
edgeWeights = [| 0, 0, -7.5, -7.5, -7.5, 0, 0, 0, -7.5, -7.5, -7.5, 0, 0, 0, -7.5, -7.5, -7.5, 0, 0, 0, -7.5, -7.5, -7.5, 0, 0, 0, -7.5, -7.5, -7.5, 0, 0, 0, -7.5, -7.5, -7.5
| 0, 0, -7.5, -7.5, 0, 0, 0, 0, -7.5, -7.5, 0, 0, 0, 0, -7.5, -7.5, 0, 0, 0, 0, -7.5, -7.5, 0, 0, 0, 0, -7.5, -7.5, 0, 0, 0, 0, -7.5, -7.5, 0
| -7.5, -7.5, 0, 0, 0, 0, -7.5, -7.5, 0, 0, 0, 0, -7.5, -7.5, 0, 0, 0, 0, -7.5, -7.5, 0, 0, 0, 0, -7.5, -7.5, 0, 0, 0, 0, -7.5, -7.5, 0, 0, 0
| -7.5, -7.5, 0, 0, 0, 0, -7.5, -7.5, 0, 0, 0, 0, -7.5, -7.5, 0, 0, 0, 0, -7.5, -7.5, 0, 0, 0, 0, -7.5, -7.5, 0, 0, 0, 0, -7.5, -7.5, 0, 0, 0
| -7.5, 0, 0, 0, 0, 0, -7.5, 0, 0, 0, 0, 0, -7.5, 0, 0, 0, 0, 0, -7.5, 0, 0, 0, 0, 0, -7.5, 0, 0, 0, 0, 0, -7.5, 0, 0, 0, 0
| 0, 0, 0, 0, 0, 0, 0, 0, 0, 0, 0, 0, 0, 0, 0, 0, 0, 0, 0, 0, 0, 0, 0, 0, 0, 0, 0, 0, 0, -15.0, -15.0, -15.0, -15.0, -15.0, -15.0
| 0, -0.0, -7.5, -7.5, -7.5, 0, 0, 0, 0, 0, 0, -0.0, 0, 0, -7.5, -7.5, -7.5, -0.0, 0, 0, -7.5, -7.5, -7.5, -0.0, 0, 0, -7.5, -7.5, -7.5, -15.0, 0, -0.0, -7.5, -7.5, -7.5
| -0.0, 0, -7.5, -7.5, -0.0, 0, 0, 0, 0, 0, 0, -0.0, 0, 0, -7.5, -7.5, 0, -0.0, 0, 0, -7.5, -7.5, 0, -0.0, 0, 0, -7.5, -7.5, 0, -15.0, -0.0, 0, -7.5, -7.5, -15.0
| -7.5, -7.5, 0, -0.0, -0.0, 0, 0, 0, 0, 0, 0, -0.0, -7.5, -7.5, 0, 0, 0, -0.0, -7.5, -7.5, 0, 0, 0, -0.0, -7.5, -7.5, 0, 0, 0, -15.0, -7.5, -7.5, 0, -0.0, -15.0
| -7.5, -7.5, -0.0, 0, -0.0, 0, 0, 0, 0, 0, 0, -0.0, -7.5, -7.5, 0, 0, 0, -0.0, -7.5, -7.5, 0, 0, 0, -0.0, -7.5, -7.5, 0, 0, 0, -15.0, -7.5, -7.5, -0.0, 0, -15.0
| -7.5, -0.0, -0.0, -0.0, 0, 0, 0, 0, 0, 0, 0, -0.0, -7.5, 0, 0, 0, 0, -0.0, -7.5, 0, 0, 0, 0, -0.0, -7.5, 0, 0, 0, 0, -15.0, -7.5, -0.0, -0.0, -0.0, 0
| 0, 0, 0, 0, 0, 0, 0, 0, 0, 0, 0, 0, 0, 0, 0, 0, 0, 0, 0, 0, 0, 0, 0, 0, 0, 0, 0, 0, 0, 0, 0, 0, 0, 0, 0
| 0, -0.0, -7.5, -7.5, -7.5, -0.0, 0, 0, -7.5, -7.5, -7.5, 0, 0, 0, 0, 0, 0, -0.0, 0, 0, -7.5, -7.5, -7.5, -0.0, 0, 0, -7.5, -7.5, -7.5, -0.0, 0, 0, -7.5, -7.5, -7.5
| -0.0, 0, -7.5, -7.5, -0.0, -0.0, 0, 0, -7.5, -7.5, 0, 0, 0, 0, 0, 0, 0, -0.0, 0, 0, -7.5, -7.5, 0, -0.0, 0, 0, -7.5, -7.5, 0, -0.0, 0, 0, -7.5, -7.5, 0
| -7.5, -7.5, 0, -0.0, -0.0, -0.0, -7.5, -7.5, 0, 0, 0, 0, 0, 0, 0, 0, 0, -0.0, -7.5, -7.5, 0, 0, 0, -0.0, -7.5, -7.5, 0, 0, 0, -0.0, -7.5, -7.5, 0, 0, 0
| -7.5, -7.5, -0.0, 0, -0.0, -0.0, -7.5, -7.5, 0, 0, 0, 0, 0, 0, 0, 0, 0, -0.0, -7.5, -7.5, 0, 0, 0, -0.0, -7.5, -7.5, 0, 0, 0, -0.0, -7.5, -7.5, 0, 0, 0
| -7.5, -0.0, -0.0, -0.0, 0, -0.0, -7.5, 0, 0, 0, 0, 0, 0, 0, 0, 0, 0, -0.0, -7.5, 0, 0, 0, 0, -0.0, -7.5, 0, 0, 0, 0, -0.0, -7.5, 0, 0, 0, 0
| 0, 0, 0, 0, 0, 0, 0, 0, 0, 0, 0, 0, 0, 0, 0, 0, 0, 0, 0, 0, 0, 0, 0, -15.0, -15.0, -15.0, -15.0, -15.0, -15.0, 0, 0, 0, 0, 0, 0
| 0, -0.0, -7.5, -7.5, -7.5, -0.0, 0, 0, -7.5, -7.5, -7.5, -0.0, 0, 0, -7.5, -7.5, -7.5, 0, 0, 0, 0, 0, 0, -15.0, 0, -0.0, -7.5, -7.5, -7.5, -0.0, 0, 0, -7.5, -7.5, -7.5
| -0.0, 0, -7.5, -7.5, -0.0, -0.0, 0, 0, -7.5, -7.5, 0, -0.0, 0, 0, -7.5, -7.5, 0, 0, 0, 0, 0, 0, 0, -15.0, -0.0, 0, -7.5, -7.5, -0.0, -0.0, 0, 0, -7.5, -7.5, 0
| -7.5, -7.5, 0, -0.0, -0.0, -0.0, -7.5, -7.5, 0, 0, 0, -0.0, -7.5, -7.5, 0, 0, 0, 0, 0, 0, 0, 0, 0, -15.0, -7.5, -7.5, 0, -15.0, -0.0, -0.0, -7.5, -7.5, 0, 0, 0
| -7.5, -7.5, -0.0, 0, -0.0, -0.0, -7.5, -7.5, 0, 0, 0, -0.0, -7.5, -7.5, 0, 0, 0, 0, 0, 0, 0, 0, 0, -15.0, -7.5, -7.5, -0.0, 0, -0.0, -0.0, -7.5, -7.5, 0, 0, 0
| -7.5, -0.0, -0.0, -0.0, 0, -0.0, -7.5, 0, 0, 0, 0, -0.0, -7.5, 0, 0, 0, 0, 0, 0, 0, 0, 0, 0, -15.0, -7.5, -0.0, -0.0, -15.0, 0, -0.0, -7.5, 0, 0, 0, 0
| 0, 0, 0, 0, 0, 0, 0, 0, 0, 0, 0, 0, 0, 0, 0, 0, 0, -15.0, -15.0, -15.0, -15.0, -15.0, -15.0, 0, 0, 0, 0, 0, 0, 0, 0, 0, 0, 0, 0
| 0, -0.0, -7.5, -7.5, -7.5, -0.0, 0, 0, -7.5, -7.5, -7.5, -0.0, 0, 0, -7.5, -7.5, -7.5, -15.0, 0, -0.0, -7.5, -7.5, -7.5, 0, 0, 0, 0, 0, 0, -0.0, 0, 0, -7.5, -7.5, -7.5
| -0.0, 0, -7.5, -7.5, -0.0, -0.0, 0, 0, -7.5, -7.5, 0, -0.0, 0, 0, -7.5, -7.5, 0, -15.0, -0.0, 0, -7.5, -7.5, -0.0, 0, 0, 0, 0, 0, 0, -0.0, 0, 0, -7.5, -7.5, 0
| -7.5, -7.5, 0, -0.0, -0.0, -0.0, -7.5, -7.5, 0, 0, 0, -0.0, -7.5, -7.5, 0, 0, 0, -15.0, -7.5, -7.5, 0, -0.0, -0.0, 0, 0, 0, 0, 0, 0, -0.0, -7.5, -7.5, 0, 0, 0
| -7.5, -7.5, -0.0, 0, -0.0, -0.0, -7.5, -7.5, 0, 0, 0, -0.0, -7.5, -7.5, 0, 0, 0, -15.0, -7.5, -7.5, -15.0, 0, -0.0, 0, 0, 0, 0, 0, 0, -0.0, -7.5, -7.5, 0, 0, 0
| -7.5, -0.0, -0.0, -0.0, 0, -0.0, -7.5, 0, 0, 0, 0, -0.0, -7.5, 0, 0, 0, 0, -15.0, -7.5, -0.0, -15.0, -0.0, 0, 0, 0, 0, 0, 0, 0, -0.0, -7.5, 0, 0, 0, 0
| 0, 0, 0, 0, 0, -15.0, -15.0, -15.0, -15.0, -15.0, -15.0, 0, 0, 0, 0, 0, 0, 0, 0, 0, 0, 0, 0, 0, 0, 0, 0, 0, 0, 0, 0, 0, 0, 0, 0
| 0, -0.0, -7.5, -7.5, -7.5, -15.0, 0, -0.0, -7.5, -7.5, -7.5, -0.0, 0, 0, -7.5, -7.5, -7.5, -0.0, 0, 0, -7.5, -7.5, -7.5, -0.0, 0, 0, -7.5, -7.5, -7.5, 0, 0, 0, 0, 0, 0
| -0.0, 0, -7.5, -7.5, -0.0, -15.0, -15.0, 0, -7.5, -7.5, -0.0, -0.0, 0, 0, -7.5, -7.5, 0, -0.0, 0, 0, -7.5, -7.5, 0, -0.0, 0, 0, -7.5, -7.5, 0, 0, 0, 0, 0, 0, 0
| -7.5, -7.5, 0, -0.0, -0.0, -15.0, -7.5, -7.5, 0, -0.0, -0.0, -0.0, -7.5, -7.5, 0, 0, 0, -0.0, -7.5, -7.5, 0, 0, 0, -0.0, -7.5, -7.5, 0, 0, 0, 0, 0, 0, 0, 0, 0
| -7.5, -7.5, -0.0, 0, -0.0, -15.0, -7.5, -7.5, -0.0, 0, -0.0, -0.0, -7.5, -7.5, 0, 0, 0, -0.0, -7.5, -7.5, 0, 0, 0, -0.0, -7.5, -7.5, 0, 0, 0, 0, 0, 0, 0, 0, 0
| -7.5, -0.0, -0.0, -0.0, 0, -15.0, -7.5, -0.0, -0.0, -0.0, 0, -0.0, -7.5, 0, 0, 0, 0, -0.0, -7.5, 0, 0, 0, 0, -0.0, -7.5, 0, 0, 0, 0, 0, 0, 0, 0, 0, 0 |];
adjacent = [| 0, 1, 1, 1, 1, 1, 0, 1, 1, 1, 1, 1, 0, 1, 1, 1, 1, 1, 0, 1, 1, 1, 1, 1, 0, 1, 1, 1, 1, 1, 0, 1, 1, 1, 1
| 1, 0, 1, 1, 1, 1, 1, 0, 1, 1, 1, 1, 1, 0, 1, 1, 1, 1, 1, 0, 1, 1, 1, 1, 1, 0, 1, 1, 1, 1, 1, 0, 1, 1, 1
| 1, 1, 0, 1, 1, 1, 1, 1, 0, 1, 1, 1, 1, 1, 0, 1, 1, 1, 1, 1, 0, 1, 1, 1, 1, 1, 0, 1, 1, 1, 1, 1, 0, 1, 1
| 1, 1, 1, 0, 1, 1, 1, 1, 1, 0, 1, 1, 1, 1, 1, 0, 1, 1, 1, 1, 1, 0, 1, 1, 1, 1, 1, 0, 1, 1, 1, 1, 1, 0, 1
| 1, 1, 1, 1, 0, 1, 1, 1, 1, 1, 0, 1, 1, 1, 1, 1, 0, 1, 1, 1, 1, 1, 0, 1, 1, 1, 1, 1, 0, 1, 1, 1, 1, 1, 0
| 1, 1, 1, 1, 1, 0, 0, 0, 0, 0, 0, 1, 1, 1, 1, 1, 1, 1, 1, 1, 1, 1, 1, 1, 1, 1, 1, 1, 1, 1, 1, 1, 1, 1, 1
| 0, 1, 1, 1, 1, 0, 0, 0, 0, 0, 0, 1, 0, 1, 1, 1, 1, 1, 0, 1, 1, 1, 1, 1, 0, 1, 1, 1, 1, 1, 0, 1, 1, 1, 1
| 1, 0, 1, 1, 1, 0, 0, 0, 0, 0, 0, 1, 1, 0, 1, 1, 1, 1, 1, 0, 1, 1, 1, 1, 1, 0, 1, 1, 1, 1, 1, 0, 1, 1, 1
| 1, 1, 0, 1, 1, 0, 0, 0, 0, 0, 0, 1, 1, 1, 0, 1, 1, 1, 1, 1, 0, 1, 1, 1, 1, 1, 0, 1, 1, 1, 1, 1, 0, 1, 1
| 1, 1, 1, 0, 1, 0, 0, 0, 0, 0, 0, 1, 1, 1, 1, 0, 1, 1, 1, 1, 1, 0, 1, 1, 1, 1, 1, 0, 1, 1, 1, 1, 1, 0, 1
| 1, 1, 1, 1, 0, 0, 0, 0, 0, 0, 0, 1, 1, 1, 1, 1, 0, 1, 1, 1, 1, 1, 0, 1, 1, 1, 1, 1, 0, 1, 1, 1, 1, 1, 0
| 1, 1, 1, 1, 1, 1, 1, 1, 1, 1, 1, 0, 0, 0, 0, 0, 0, 1, 1, 1, 1, 1, 1, 1, 1, 1, 1, 1, 1, 1, 1, 1, 1, 1, 1
| 0, 1, 1, 1, 1, 1, 0, 1, 1, 1, 1, 0, 0, 0, 0, 0, 0, 1, 0, 1, 1, 1, 1, 1, 0, 1, 1, 1, 1, 1, 0, 1, 1, 1, 1
| 1, 0, 1, 1, 1, 1, 1, 0, 1, 1, 1, 0, 0, 0, 0, 0, 0, 1, 1, 0, 1, 1, 1, 1, 1, 0, 1, 1, 1, 1, 1, 0, 1, 1, 1
| 1, 1, 0, 1, 1, 1, 1, 1, 0, 1, 1, 0, 0, 0, 0, 0, 0, 1, 1, 1, 0, 1, 1, 1, 1, 1, 0, 1, 1, 1, 1, 1, 0, 1, 1
| 1, 1, 1, 0, 1, 1, 1, 1, 1, 0, 1, 0, 0, 0, 0, 0, 0, 1, 1, 1, 1, 0, 1, 1, 1, 1, 1, 0, 1, 1, 1, 1, 1, 0, 1
| 1, 1, 1, 1, 0, 1, 1, 1, 1, 1, 0, 0, 0, 0, 0, 0, 0, 1, 1, 1, 1, 1, 0, 1, 1, 1, 1, 1, 0, 1, 1, 1, 1, 1, 0
| 1, 1, 1, 1, 1, 1, 1, 1, 1, 1, 1, 1, 1, 1, 1, 1, 1, 0, 0, 0, 0, 0, 0, 1, 1, 1, 1, 1, 1, 1, 1, 1, 1, 1, 1
| 0, 1, 1, 1, 1, 1, 0, 1, 1, 1, 1, 1, 0, 1, 1, 1, 1, 0, 0, 0, 0, 0, 0, 1, 0, 1, 1, 1, 1, 1, 0, 1, 1, 1, 1
| 1, 0, 1, 1, 1, 1, 1, 0, 1, 1, 1, 1, 1, 0, 1, 1, 1, 0, 0, 0, 0, 0, 0, 1, 1, 0, 1, 1, 1, 1, 1, 0, 1, 1, 1
| 1, 1, 0, 1, 1, 1, 1, 1, 0, 1, 1, 1, 1, 1, 0, 1, 1, 0, 0, 0, 0, 0, 0, 1, 1, 1, 0, 1, 1, 1, 1, 1, 0, 1, 1
| 1, 1, 1, 0, 1, 1, 1, 1, 1, 0, 1, 1, 1, 1, 1, 0, 1, 0, 0, 0, 0, 0, 0, 1, 1, 1, 1, 0, 1, 1, 1, 1, 1, 0, 1
| 1, 1, 1, 1, 0, 1, 1, 1, 1, 1, 0, 1, 1, 1, 1, 1, 0, 0, 0, 0, 0, 0, 0, 1, 1, 1, 1, 1, 0, 1, 1, 1, 1, 1, 0
| 1, 1, 1, 1, 1, 1, 1, 1, 1, 1, 1, 1, 1, 1, 1, 1, 1, 1, 1, 1, 1, 1, 1, 0, 0, 0, 0, 0, 0, 1, 1, 1, 1, 1, 1
| 0, 1, 1, 1, 1, 1, 0, 1, 1, 1, 1, 1, 0, 1, 1, 1, 1, 1, 0, 1, 1, 1, 1, 0, 0, 0, 0, 0, 0, 1, 0, 1, 1, 1, 1
| 1, 0, 1, 1, 1, 1, 1, 0, 1, 1, 1, 1, 1, 0, 1, 1, 1, 1, 1, 0, 1, 1, 1, 0, 0, 0, 0, 0, 0, 1, 1, 0, 1, 1, 1
| 1, 1, 0, 1, 1, 1, 1, 1, 0, 1, 1, 1, 1, 1, 0, 1, 1, 1, 1, 1, 0, 1, 1, 0, 0, 0, 0, 0, 0, 1, 1, 1, 0, 1, 1
| 1, 1, 1, 0, 1, 1, 1, 1, 1, 0, 1, 1, 1, 1, 1, 0, 1, 1, 1, 1, 1, 0, 1, 0, 0, 0, 0, 0, 0, 1, 1, 1, 1, 0, 1
| 1, 1, 1, 1, 0, 1, 1, 1, 1, 1, 0, 1, 1, 1, 1, 1, 0, 1, 1, 1, 1, 1, 0, 0, 0, 0, 0, 0, 0, 1, 1, 1, 1, 1, 0
| 1, 1, 1, 1, 1, 1, 1, 1, 1, 1, 1, 1, 1, 1, 1, 1, 1, 1, 1, 1, 1, 1, 1, 1, 1, 1, 1, 1, 1, 0, 0, 0, 0, 0, 0
| 0, 1, 1, 1, 1, 1, 0, 1, 1, 1, 1, 1, 0, 1, 1, 1, 1, 1, 0, 1, 1, 1, 1, 1, 0, 1, 1, 1, 1, 0, 0, 0, 0, 0, 0
| 1, 0, 1, 1, 1, 1, 1, 0, 1, 1, 1, 1, 1, 0, 1, 1, 1, 1, 1, 0, 1, 1, 1, 1, 1, 0, 1, 1, 1, 0, 0, 0, 0, 0, 0
| 1, 1, 0, 1, 1, 1, 1, 1, 0, 1, 1, 1, 1, 1, 0, 1, 1, 1, 1, 1, 0, 1, 1, 1, 1, 1, 0, 1, 1, 0, 0, 0, 0, 0, 0
| 1, 1, 1, 0, 1, 1, 1, 1, 1, 0, 1, 1, 1, 1, 1, 0, 1, 1, 1, 1, 1, 0, 1, 1, 1, 1, 1, 0, 1, 0, 0, 0, 0, 0, 0
| 1, 1, 1, 1, 0, 1, 1, 1, 1, 1, 0, 1, 1, 1, 1, 1, 0, 1, 1, 1, 1, 1, 0, 1, 1, 1, 1, 1, 0, 0, 0, 0, 0, 0, 0 |];
